32      4       
20      13      15      17      
0       0       0       0       0       8       2       25      26      27      28      29      30      31      
3       1       3       6       6       1       3       
10      1       1       6       5       2       24      4       
4       1       1       5       1       3       23      22      5       
9       1       1       11      3       1       6       
2       6       8       5       10      2       21      7       
7       12      1       1       1       3       20      19      8       
6       11      9       1       3       2       18      9       
3       1       3       1       2       2       17      10      
6       1       3       9       14      1       11      
2       3       6       5       1       1       12      
1       1       1       7       1       1       13      
1       8       1       1       2       1       14      
6       1       4       7       7       1       15      
1       7       4       5       4       1       16      
10      8       4       3       2       1       32      
10      6       7       4       8       1       32      
7       4       6       7       17      1       32      
8       1       4       7       1       1       32      
7       1       5       6       4       1       32      
8       5       1       1       1       1       32      
9       8       1       1       3       1       32      
4       1       1       1       1       1       32      
10      8       1       2       1       1       32      
4       10      1       2       8       1       32      
9       11      1       1       4       1       32      
3       11      6       1       1       1       32      
8       6       1       1       6       1       32      
5       6       1       4       1       1       32      
2       7       10      1       9       1       32      
6       2       2       1       1       1       32      
0       0       0       0       0       0       
